k = 30;
b = 15;
AtomicConstraints =  [|
2, 3|
	2, 6|
	2, 11|
	2, 14|
	4, 2|
	4, 3|
	4, 5|
	4, 6|
	4, 11|
	4, 14|
	5, 3|
	5, 6|
	5, 14|
	7, 3|
	7, 6|
	7, 8|
	7, 10|
	7, 14|
	1, 11|
	1, 13|
	1, 14|
	9, 3|
	9, 6|
	9, 8|
	9, 10|
	12, 2|
	12, 3|
	12, 11|
	12, 13|
	12, 14|
	13, 3|
	13, 11|
	13, 14|
	15, 2|
	15, 3|
	15, 5|
	15, 6|
	15, 11|
	15, 13|
	15, 14|
	22, 26|
	22, 23|
	22, 25|
	22, 29|
	22, 18|
	22, 21|
	24, 26|
	24, 23|
	24, 25|
	24, 29|
	24, 18|
	24, 21|
	16, 26|
	16, 23|
	16, 25|
	16, 18|
	16, 21|
	17, 29|
	17, 18|
	17, 21|
	20, 29|
	20, 18|
	20, 21|
	28, 29|
	28, 18|
	28, 21|];
DisjunctiveConstraints =  [|2, 5, 2, 13|
	3, 6, 3, 14|
	4, 7, 4, 15|
	6, 8, 6, 3|
	7, 9, 7, 4|
	8, 10, 8, 6|
	12, 15, 12, 1|
	14, 3, 14, 11|
	15, 4, 15, 12|
	24, 16, 24, 22|
	23, 25, 23, 26|
	17, 18, 17, 3|
	20, 28, 20, 17|
	20, 21, 20, 6|
	30, 19, 30, 27|
	18, 21, 18, 29|];
SoftAtomicConstraints =  [|
12, 1|
5, 2|
6, 3|
7, 4|
8, 6|
9, 7|
10, 8|
14, 11|
15, 12|
2, 13|
3, 14|
4, 15|
20, 17|
21, 18|
28, 20|
24, 22|
25, 23|
16, 24|
23, 26|
30, 27|
18, 29|
19, 30|];
DirectSuccessors =  [];
